1713.20
0 138 37 23 26 75 101 54 174 47 32 10 133 148 69 70 39 86 113 76 96 129 147 106 33 144 36 8 46 71 93 4 73 27 25 95 112 163 91 120 81 65 104 145 3 136 89 78 83 12 131 114 162 18 63 60 15 1 107 153 59 88 117 85 19 5 14 110 151 38 92 142 52 57 100 132 20 152 72 74 150 82 156 35 58 124 161 66 41 53 109 49 141 122 171 168 94 30 149 139 134 84 157 62 16 9 48 40 115 90 13 64 128 155 165 159 61 79 99 111 158 119 87 166 146 121 102 130 67 164 143 24 118 125 170 31 135 97 50 43 68 77 45 17 11 22 56 34 80 6 55 116 154 127 98 21 173 2 140 108 51 172 160 103 29 28 105 44 126 7 123 42 137 167 169
